
n_res = 6;
rcap = [33, 32, 865, 861, 819, 870];
rtype = [1, 1, 2, 2, 2, 2];
n_tasks = 50;
modes =  [{1, 2, 3, 4, 5, 6, 7, 8, 9}, {10, 11, 12, 13, 14, 15, 16, 17, 18}, {19, 20, 21, 22, 23, 24, 25, 26, 27}, {28, 29, 30, 31, 32, 33, 34, 35, 36}, {37, 38, 39, 40, 41, 42, 43, 44, 45}, {46, 47, 48, 49, 50, 51, 52, 53, 54}, {55, 56, 57, 58, 59, 60, 61, 62, 63}, {64, 65, 66, 67, 68, 69, 70, 71, 72}, {73, 74, 75, 76, 77, 78, 79, 80, 81}, {82, 83, 84, 85, 86, 87, 88, 89, 90}, {91, 92, 93, 94, 95, 96, 97, 98, 99}, {100, 101, 102, 103, 104, 105, 106, 107, 108}, {109, 110, 111, 112, 113, 114, 115, 116, 117}, {118, 119, 120, 121, 122, 123, 124, 125, 126}, {127, 128, 129, 130, 131, 132, 133, 134, 135}, {136, 137, 138, 139, 140, 141, 142, 143, 144}, {145, 146, 147, 148, 149, 150, 151, 152, 153}, {154, 155, 156, 157, 158, 159, 160, 161, 162}, {163, 164, 165, 166, 167, 168, 169, 170, 171}, {172, 173, 174, 175, 176, 177, 178, 179, 180}, {181, 182, 183, 184, 185, 186, 187, 188, 189}, {190, 191, 192, 193, 194, 195, 196, 197, 198}, {199, 200, 201, 202, 203, 204, 205, 206, 207}, {208, 209, 210, 211, 212, 213, 214, 215, 216}, {217, 218, 219, 220, 221, 222, 223, 224, 225}, {226, 227, 228, 229, 230, 231, 232, 233, 234}, {235, 236, 237, 238, 239, 240, 241, 242, 243}, {244, 245, 246, 247, 248, 249, 250, 251, 252}, {253, 254, 255, 256, 257, 258, 259, 260, 261}, {262, 263, 264, 265, 266, 267, 268, 269, 270}, {271, 272, 273, 274, 275, 276, 277, 278, 279}, {280, 281, 282, 283, 284, 285, 286, 287, 288}, {289, 290, 291, 292, 293, 294, 295, 296, 297}, {298, 299, 300, 301, 302, 303, 304, 305, 306}, {307, 308, 309, 310, 311, 312, 313, 314, 315}, {316, 317, 318, 319, 320, 321, 322, 323, 324}, {325, 326, 327, 328, 329, 330, 331, 332, 333}, {334, 335, 336, 337, 338, 339, 340, 341, 342}, {343, 344, 345, 346, 347, 348, 349, 350, 351}, {352, 353, 354, 355, 356, 357, 358, 359, 360}, {361, 362, 363, 364, 365, 366, 367, 368, 369}, {370, 371, 372, 373, 374, 375, 376, 377, 378}, {379, 380, 381, 382, 383, 384, 385, 386, 387}, {388, 389, 390, 391, 392, 393, 394, 395, 396}, {397, 398, 399, 400, 401, 402, 403, 404, 405}, {406, 407, 408, 409, 410, 411, 412, 413, 414}, {415, 416, 417, 418, 419, 420, 421, 422, 423}, {424, 425, 426, 427, 428, 429, 430, 431, 432}, {433, 434, 435, 436, 437, 438, 439, 440, 441}, {442, 443, 444, 445, 446, 447, 448, 449, 450}];
succ =  [{49, 47, 46, 38, 37, 35, 29, 25, 21, 20, 16}, {46, 44, 43, 42, 40, 17, 10}, {43, 42, 38, 31, 29, 27, 25, 24, 16}, {45, 44, 39, 31, 26, 25, 24, 21}, {45, 39, 26, 25, 24, 20}, {49, 42, 41, 40, 31, 27, 26, 25, 23}, {39, 31, 26, 25, 21, 20}, {47, 44, 42, 39, 34, 33, 31, 30, 24}, {46, 42, 40, 31, 17}, {31, 25, 23, 16}, {44, 43, 31, 26, 21}, {46, 40, 38, 36, 33, 31, 30, 23}, {46, 43, 42, 41, 39, 38, 37, 36, 35, 34, 32}, {45, 43, 41, 40, 37, 36, 35, 33, 26}, {49, 48, 39, 38, 32, 31, 25}, {45, 41, 39, 36, 34, 33, 30}, {47, 39, 38, 37, 34, 33, 30}, {38, 37, 36, 35, 34, 33, 30}, {41, 36, 33, 23}, {44, 43, 40, 34, 33, 30}, {42, 40, 36, 34, 33, 32}, {39, 37, 34, 33, 31}, {37, 35, 34, 32}, {41, 37, 36, 35}, {36, 33}, {38, 34}, {48, 33}, {40, 32}, {30}, {32}, {35}, {}, {}, {}, {}, {}, {}, {}, {}, {}, {}, {}, {}, {}, {}, {}, {}, {}, {}, {}];
n_opt = 450;
dur = [5, 12, 14, 19, 20, 22, 24, 25, 27, 8, 10, 12, 18, 19, 20, 21, 24, 26, 2, 3, 4, 6, 7, 18, 22, 23, 27, 2, 3, 12, 16, 19, 21, 22, 23, 24, 4, 5, 8, 11, 12, 23, 27, 29, 30, 5, 6, 7, 10, 15, 16, 21, 22, 29, 2, 3, 6, 8, 15, 17, 24, 29, 30, 6, 7, 12, 13, 18, 19, 24, 25, 26, 1, 6, 9, 12, 13, 20, 22, 23, 27, 2, 12, 13, 14, 18, 19, 20, 26, 30, 3, 12, 14, 15, 16, 21, 23, 24, 28, 9, 13, 14, 16, 17, 18, 19, 23, 30, 8, 11, 14, 15, 16, 17, 26, 27, 28, 10, 11, 13, 14, 16, 17, 18, 20, 26, 1, 2, 3, 4, 5, 10, 17, 24, 25, 1, 2, 3, 4, 7, 14, 23, 24, 25, 2, 5, 7, 9, 10, 15, 18, 23, 29, 1, 3, 14, 16, 17, 18, 27, 29, 30, 3, 9, 12, 16, 20, 21, 25, 26, 27, 1, 3, 13, 14, 15, 17, 18, 20, 21, 10, 11, 12, 13, 14, 23, 28, 29, 30, 1, 4, 8, 9, 13, 22, 23, 25, 27, 10, 12, 13, 16, 17, 23, 25, 26, 30, 6, 10, 11, 12, 13, 14, 16, 17, 28, 3, 4, 10, 12, 18, 20, 21, 28, 29, 2, 3, 7, 10, 16, 18, 23, 27, 28, 1, 4, 5, 7, 8, 12, 25, 26, 29, 1, 6, 8, 12, 13, 18, 19, 25, 29, 5, 8, 10, 17, 21, 24, 25, 26, 28, 1, 4, 6, 7, 10, 17, 25, 27, 28, 1, 2, 3, 9, 12, 18, 20, 23, 24, 6, 7, 8, 9, 13, 17, 18, 22, 25, 2, 5, 6, 7, 8, 9, 15, 18, 28, 1, 2, 6, 10, 15, 20, 22, 28, 29, 3, 12, 13, 16, 17, 23, 25, 26, 27, 4, 11, 12, 16, 17, 19, 20, 21, 30, 2, 3, 6, 9, 13, 14, 22, 23, 24, 5, 8, 9, 10, 12, 13, 15, 18, 28, 2, 3, 12, 13, 14, 15, 17, 18, 29, 1, 10, 11, 12, 15, 16, 19, 20, 29, 2, 9, 10, 12, 21, 24, 26, 28, 30, 2, 6, 7, 12, 13, 15, 19, 26, 30, 2, 3, 5, 11, 17, 18, 25, 28, 29, 2, 4, 7, 10, 18, 20, 24, 25, 29, 2, 3, 5, 8, 10, 13, 22, 24, 30, 2, 3, 4, 5, 6, 7, 24, 26, 27, 2, 3, 5, 6, 9, 11, 13, 19, 27, 8, 18, 19, 20, 24, 25, 26, 28, 30, 5, 9, 11, 15, 18, 20, 21, 25, 29, 3, 8, 9, 11, 13, 17, 19, 20, 25];
rreq = [|4, 3, 3, 3, 3, 3, 3, 3, 3, 2, 2, 2, 2, 2, 2, 2, 2, 2, 4, 4, 4, 3, 3, 3, 2, 2, 2, 5, 5, 5, 5, 5, 5, 5, 5, 5, 4, 3, 3, 3, 3, 3, 3, 3, 3, 3, 2, 2, 2, 1, 1, 1, 1, 1, 5, 4, 4, 3, 3, 2, 1, 1, 1, 3, 3, 3, 3, 3, 3, 3, 3, 3, 2, 2, 2, 2, 2, 1, 1, 1, 1, 3, 3, 3, 3, 3, 3, 3, 3, 3, 2, 1, 1, 1, 1, 1, 1, 1, 1, 3, 3, 3, 3, 2, 2, 2, 2, 2, 5, 4, 4, 4, 4, 4, 4, 4, 4, 3, 3, 3, 3, 3, 3, 3, 3, 3, 3, 2, 2, 2, 2, 1, 1, 1, 1, 5, 4, 4, 4, 4, 3, 3, 3, 3, 2, 2, 2, 2, 2, 2, 2, 2, 2, 2, 2, 2, 2, 2, 1, 1, 1, 1, 2, 2, 2, 2, 2, 2, 2, 2, 2, 5, 4, 4, 3, 3, 3, 3, 2, 2, 5, 5, 5, 5, 5, 5, 5, 5, 5, 2, 2, 2, 2, 1, 1, 1, 1, 1, 2, 2, 2, 2, 1, 1, 1, 1, 1, 2, 2, 2, 2, 2, 2, 2, 2, 2, 3, 2, 2, 2, 2, 1, 1, 1, 1, 3, 3, 3, 3, 2, 2, 2, 2, 2, 3, 3, 3, 3, 2, 2, 1, 1, 1, 3, 2, 2, 2, 2, 2, 2, 2, 2, 3, 3, 3, 3, 3, 2, 2, 2, 2, 1, 1, 1, 1, 1, 1, 1, 1, 1, 1, 1, 1, 1, 1, 1, 1, 1, 1, 4, 4, 3, 3, 3, 2, 1, 1, 1, 3, 2, 2, 2, 2, 1, 1, 1, 1, 2, 2, 2, 2, 2, 2, 2, 2, 2, 2, 2, 2, 2, 1, 1, 1, 1, 1, 4, 4, 4, 4, 4, 4, 4, 4, 4, 4, 4, 4, 4, 4, 3, 3, 3, 3, 4, 4, 4, 3, 2, 2, 1, 1, 1, 5, 4, 4, 3, 3, 3, 3, 2, 2, 3, 3, 3, 3, 3, 3, 3, 3, 3, 3, 2, 2, 2, 1, 1, 1, 1, 1, 5, 4, 4, 4, 4, 3, 3, 3, 3, 4, 4, 4, 4, 4, 4, 4, 4, 4, 3, 3, 3, 3, 2, 2, 2, 1, 1, 4, 4, 4, 4, 4, 4, 4, 4, 4, 3, 3, 3, 3, 3, 3, 3, 3, 3, 5, 5, 5, 5, 5, 5, 5, 5, 5, 3, 3, 3, 3, 3, 3, 3, 3, 3, 3, 3, 3, 3, 3, 3, 3, 3, 3, 4, 4, 4, 4, 4, 4, 4, 4, 4
 |2, 2, 2, 2, 2, 2, 2, 2, 2, 2, 2, 2, 2, 2, 2, 2, 2, 2, 1, 1, 1, 1, 1, 1, 1, 1, 1, 3, 2, 2, 2, 2, 2, 2, 2, 2, 4, 4, 4, 3, 2, 2, 2, 1, 1, 4, 4, 4, 3, 3, 3, 2, 2, 2, 4, 4, 4, 4, 4, 3, 3, 3, 3, 3, 2, 2, 2, 1, 1, 1, 1, 1, 3, 3, 3, 3, 3, 3, 3, 3, 3, 4, 3, 3, 3, 2, 2, 2, 2, 2, 4, 4, 4, 4, 3, 3, 3, 3, 3, 2, 2, 2, 2, 2, 2, 2, 2, 2, 4, 4, 3, 3, 3, 2, 1, 1, 1, 5, 4, 4, 4, 4, 3, 3, 3, 3, 3, 3, 3, 3, 2, 2, 2, 1, 1, 4, 4, 4, 3, 3, 3, 2, 2, 2, 3, 2, 2, 2, 2, 2, 2, 2, 2, 3, 3, 3, 3, 3, 3, 3, 3, 3, 1, 1, 1, 1, 1, 1, 1, 1, 1, 3, 3, 3, 3, 2, 2, 2, 1, 1, 4, 3, 3, 2, 2, 2, 2, 1, 1, 4, 4, 4, 4, 4, 3, 3, 3, 3, 3, 2, 2, 2, 2, 2, 2, 2, 2, 4, 4, 4, 4, 4, 4, 4, 4, 4, 5, 4, 4, 3, 3, 3, 3, 2, 2, 4, 4, 4, 4, 4, 4, 4, 4, 4, 2, 1, 1, 1, 1, 1, 1, 1, 1, 2, 2, 2, 2, 2, 2, 2, 2, 2, 4, 3, 3, 3, 3, 3, 3, 3, 3, 5, 4, 4, 4, 3, 3, 3, 3, 3, 2, 2, 2, 2, 2, 1, 1, 1, 1, 4, 4, 4, 3, 2, 2, 2, 1, 1, 4, 4, 4, 4, 3, 3, 3, 3, 3, 2, 2, 2, 2, 2, 2, 2, 2, 2, 3, 2, 2, 2, 2, 1, 1, 1, 1, 1, 1, 1, 1, 1, 1, 1, 1, 1, 4, 4, 4, 3, 3, 2, 2, 1, 1, 3, 2, 2, 2, 2, 2, 2, 2, 2, 4, 4, 4, 4, 3, 3, 3, 3, 3, 4, 4, 4, 3, 3, 3, 3, 2, 2, 2, 2, 2, 2, 2, 2, 2, 2, 2, 5, 4, 4, 3, 2, 2, 1, 1, 1, 3, 2, 2, 2, 2, 2, 2, 2, 2, 2, 2, 2, 2, 2, 2, 2, 2, 2, 5, 4, 4, 4, 4, 3, 3, 3, 3, 3, 2, 2, 2, 2, 1, 1, 1, 1, 3, 3, 3, 3, 3, 2, 2, 2, 2, 3, 2, 2, 2, 2, 2, 2, 2, 2, 5, 4, 4, 4, 3, 3, 3, 2, 2, 5, 4, 4, 4, 4, 3, 3, 3, 3
 |18, 18, 18, 17, 17, 17, 16, 16, 16, 9, 8, 8, 7, 7, 7, 6, 6, 6, 7, 7, 6, 6, 4, 4, 3, 3, 2, 25, 24, 23, 22, 21, 20, 19, 17, 16, 18, 17, 16, 15, 15, 14, 13, 12, 11, 23, 22, 22, 22, 22, 22, 22, 22, 22, 23, 21, 20, 20, 18, 18, 16, 16, 15, 15, 15, 15, 15, 15, 15, 15, 15, 15, 20, 18, 16, 14, 10, 8, 7, 5, 4, 10, 10, 9, 7, 7, 6, 6, 4, 4, 10, 10, 9, 7, 6, 6, 4, 4, 3, 14, 12, 12, 10, 10, 8, 7, 6, 6, 18, 18, 18, 18, 18, 18, 18, 18, 18, 21, 19, 18, 17, 17, 17, 15, 15, 14, 24, 22, 19, 17, 15, 13, 8, 6, 5, 14, 13, 12, 12, 11, 10, 10, 8, 8, 25, 23, 23, 22, 21, 20, 19, 18, 17, 12, 12, 11, 10, 8, 8, 7, 6, 5, 23, 22, 21, 20, 19, 19, 18, 17, 17, 15, 14, 11, 10, 8, 7, 5, 2, 2, 11, 10, 9, 9, 7, 7, 7, 5, 5, 25, 21, 19, 17, 17, 14, 12, 10, 9, 25, 25, 24, 22, 22, 20, 20, 19, 18, 8, 7, 7, 7, 7, 7, 7, 7, 7, 14, 13, 13, 12, 12, 11, 10, 10, 10, 24, 21, 20, 19, 19, 17, 16, 16, 15, 10, 8, 8, 8, 7, 7, 6, 5, 5, 22, 21, 21, 21, 20, 20, 20, 20, 20, 29, 28, 27, 26, 24, 23, 22, 21, 19, 26, 24, 24, 24, 23, 22, 22, 21, 21, 26, 26, 24, 23, 22, 22, 20, 19, 19, 29, 25, 21, 17, 15, 11, 11, 8, 3, 18, 16, 14, 13, 11, 10, 7, 6, 4, 19, 19, 17, 17, 15, 15, 13, 13, 11, 13, 12, 11, 10, 8, 6, 6, 4, 3, 14, 13, 13, 13, 12, 12, 12, 11, 11, 26, 24, 22, 21, 18, 16, 13, 9, 8, 23, 22, 21, 20, 17, 17, 15, 15, 14, 27, 25, 23, 19, 17, 17, 14, 13, 11, 8, 7, 7, 7, 6, 6, 5, 5, 5, 23, 22, 21, 18, 17, 16, 14, 12, 12, 28, 27, 27, 26, 25, 25, 25, 23, 23, 20, 18, 16, 15, 12, 12, 10, 6, 5, 28, 23, 22, 21, 17, 15, 12, 8, 7, 26, 25, 25, 24, 24, 24, 23, 23, 23, 11, 10, 10, 10, 9, 9, 9, 8, 8, 21, 21, 21, 21, 21, 21, 21, 21, 21, 25, 24, 20, 19, 14, 14, 11, 9, 4, 26, 26, 26, 26, 26, 25, 25, 25, 25, 16, 16, 16, 16, 16, 16, 16, 16, 16
 |10, 9, 8, 8, 7, 6, 6, 6, 5, 26, 23, 21, 19, 18, 16, 13, 13, 9, 28, 28, 27, 26, 25, 24, 23, 22, 22, 10, 9, 9, 8, 7, 7, 6, 6, 5, 13, 13, 11, 10, 9, 8, 7, 7, 6, 27, 27, 27, 27, 27, 27, 27, 27, 27, 20, 17, 14, 13, 11, 9, 6, 5, 2, 23, 20, 18, 15, 14, 11, 11, 6, 6, 20, 18, 18, 18, 16, 16, 16, 15, 14, 19, 18, 18, 17, 17, 16, 16, 15, 15, 20, 19, 18, 16, 14, 11, 10, 8, 5, 16, 15, 13, 9, 8, 6, 5, 4, 2, 20, 19, 17, 15, 14, 12, 11, 8, 8, 17, 17, 15, 12, 12, 9, 9, 7, 5, 15, 13, 12, 12, 11, 11, 9, 8, 8, 11, 8, 7, 7, 6, 5, 3, 2, 2, 18, 17, 17, 16, 16, 16, 16, 15, 15, 26, 26, 24, 24, 23, 22, 21, 20, 20, 14, 13, 13, 12, 11, 10, 8, 8, 7, 10, 8, 8, 7, 7, 7, 6, 5, 5, 21, 20, 20, 20, 19, 19, 19, 19, 19, 14, 14, 13, 12, 11, 11, 10, 9, 9, 24, 24, 23, 22, 21, 19, 19, 18, 16, 21, 20, 19, 18, 17, 16, 14, 13, 12, 6, 5, 5, 5, 3, 3, 3, 2, 1, 10, 9, 8, 8, 7, 6, 6, 5, 5, 25, 24, 21, 17, 17, 14, 13, 8, 6, 8, 8, 7, 7, 7, 6, 6, 5, 5, 20, 19, 18, 16, 15, 15, 14, 12, 12, 23, 21, 21, 20, 20, 19, 19, 19, 18, 28, 28, 27, 24, 24, 22, 21, 18, 18, 20, 18, 15, 15, 12, 10, 10, 8, 6, 22, 20, 20, 17, 17, 15, 13, 11, 10, 23, 22, 18, 17, 16, 13, 9, 8, 5, 21, 20, 19, 18, 17, 17, 17, 15, 15, 28, 27, 27, 26, 25, 24, 23, 23, 22, 18, 15, 14, 12, 11, 9, 8, 5, 5, 29, 26, 24, 23, 21, 17, 15, 14, 11, 26, 24, 22, 21, 17, 16, 16, 14, 12, 21, 18, 15, 14, 12, 10, 6, 6, 3, 14, 12, 11, 11, 9, 9, 7, 6, 6, 24, 20, 18, 16, 14, 13, 11, 10, 8, 16, 13, 13, 12, 10, 8, 6, 5, 4, 23, 22, 22, 22, 22, 21, 21, 21, 21, 13, 12, 12, 12, 12, 12, 12, 12, 12, 25, 24, 22, 21, 21, 20, 18, 17, 17, 29, 24, 24, 19, 18, 15, 10, 7, 5, 19, 19, 19, 18, 18, 18, 18, 17, 17, 24, 20, 19, 16, 13, 13, 10, 9, 5, 21, 20, 20, 20, 19, 18, 18, 18, 17
 |14, 12, 11, 11, 10, 8, 8, 7, 6, 17, 17, 17, 17, 16, 16, 16, 15, 15, 21, 21, 21, 21, 21, 21, 21, 21, 21, 15, 15, 14, 12, 11, 11, 10, 9, 7, 17, 15, 13, 13, 10, 9, 5, 4, 3, 15, 14, 14, 14, 14, 14, 14, 14, 14, 25, 25, 24, 24, 23, 23, 22, 22, 21, 28, 28, 26, 26, 24, 23, 20, 19, 18, 27, 23, 23, 20, 18, 18, 15, 12, 12, 22, 21, 19, 16, 15, 14, 12, 11, 8, 13, 11, 11, 11, 10, 10, 9, 8, 8, 17, 17, 16, 14, 14, 12, 12, 11, 9, 22, 19, 17, 14, 11, 11, 9, 7, 3, 23, 22, 21, 21, 21, 20, 19, 19, 19, 15, 13, 13, 11, 10, 7, 7, 5, 3, 8, 7, 7, 7, 7, 7, 7, 7, 7, 21, 21, 21, 20, 20, 20, 19, 19, 19, 24, 24, 23, 22, 20, 19, 19, 17, 17, 23, 19, 17, 15, 11, 11, 8, 6, 4, 29, 25, 22, 21, 17, 13, 12, 7, 6, 16, 16, 15, 15, 15, 14, 13, 13, 13, 9, 7, 7, 5, 4, 3, 3, 1, 1, 10, 9, 9, 8, 8, 7, 6, 6, 6, 16, 15, 13, 11, 10, 10, 9, 7, 6, 6, 5, 5, 4, 4, 3, 3, 2, 2, 20, 18, 14, 14, 11, 10, 7, 4, 2, 17, 17, 17, 17, 17, 17, 17, 17, 17, 23, 21, 20, 20, 19, 18, 17, 16, 16, 3, 3, 3, 3, 3, 3, 3, 3, 3, 3, 3, 3, 2, 2, 2, 1, 1, 1, 26, 26, 24, 21, 20, 19, 18, 15, 15, 24, 24, 24, 23, 23, 23, 22, 22, 22, 27, 26, 24, 23, 22, 22, 20, 19, 18, 7, 7, 6, 5, 5, 4, 4, 4, 3, 21, 20, 19, 17, 16, 15, 14, 13, 12, 19, 18, 18, 18, 18, 18, 18, 18, 18, 17, 15, 14, 14, 12, 10, 9, 9, 8, 13, 12, 12, 12, 11, 11, 11, 11, 11, 23, 19, 18, 14, 11, 9, 8, 5, 4, 15, 12, 11, 9, 8, 6, 6, 5, 2, 21, 19, 19, 15, 13, 11, 10, 8, 7, 17, 16, 13, 13, 10, 9, 7, 6, 5, 22, 21, 21, 21, 20, 20, 20, 20, 20, 23, 20, 20, 16, 14, 10, 8, 5, 4, 26, 21, 19, 17, 17, 14, 10, 10, 8, 10, 10, 9, 9, 9, 8, 8, 7, 7, 30, 26, 22, 19, 17, 15, 9, 8, 4, 22, 21, 21, 21, 21, 20, 20, 20, 20, 24, 21, 20, 19, 19, 16, 15, 14, 14, 19, 18, 18, 17, 15, 14, 14, 13, 12
 |12, 12, 10, 8, 7, 5, 5, 3, 1, 19, 18, 18, 17, 16, 14, 13, 12, 12, 10, 9, 9, 9, 8, 8, 8, 8, 8, 27, 24, 23, 22, 20, 19, 18, 17, 16, 10, 9, 9, 9, 9, 8, 8, 8, 8, 5, 4, 3, 4, 4, 3, 4, 3, 2, 21, 21, 21, 21, 21, 21, 21, 21, 21, 30, 25, 23, 19, 16, 16, 12, 10, 7, 26, 23, 21, 19, 16, 15, 10, 9, 8, 30, 24, 21, 21, 18, 16, 13, 10, 7, 15, 14, 13, 12, 12, 11, 11, 10, 10, 29, 29, 29, 28, 27, 27, 26, 26, 26, 25, 24, 23, 23, 22, 20, 20, 18, 18, 11, 11, 11, 11, 10, 10, 10, 9, 9, 25, 24, 24, 24, 24, 24, 24, 24, 24, 26, 25, 23, 22, 21, 21, 19, 18, 17, 20, 18, 17, 16, 14, 12, 11, 9, 8, 30, 28, 27, 27, 26, 25, 24, 22, 21, 11, 10, 10, 10, 10, 9, 9, 9, 9, 22, 22, 21, 20, 18, 18, 16, 15, 15, 26, 24, 22, 21, 19, 18, 17, 15, 13, 18, 15, 14, 12, 9, 9, 7, 3, 3, 16, 15, 14, 13, 13, 13, 12, 11, 11, 20, 17, 16, 14, 11, 11, 8, 5, 5, 23, 22, 21, 22, 21, 21, 21, 21, 21, 16, 15, 15, 15, 14, 14, 13, 13, 13, 3, 3, 3, 3, 3, 3, 3, 3, 3, 26, 26, 26, 25, 26, 26, 26, 26, 25, 29, 24, 22, 20, 16, 14, 11, 10, 5, 25, 24, 23, 24, 22, 22, 21, 21, 20, 11, 10, 8, 8, 7, 5, 5, 4, 2, 19, 18, 17, 17, 16, 15, 15, 13, 13, 26, 25, 24, 23, 21, 21, 19, 19, 18, 27, 25, 23, 21, 21, 18, 18, 16, 13, 19, 17, 16, 15, 15, 15, 13, 13, 12, 24, 24, 23, 22, 21, 20, 18, 18, 17, 24, 23, 23, 23, 22, 22, 22, 21, 21, 22, 19, 16, 14, 12, 11, 9, 6, 4, 6, 5, 5, 5, 3, 3, 3, 2, 1, 23, 21, 19, 15, 14, 12, 9, 8, 7, 17, 16, 16, 16, 15, 15, 15, 14, 14, 19, 16, 15, 14, 12, 9, 9, 7, 5, 19, 17, 17, 17, 16, 16, 15, 15, 14, 7, 6, 6, 6, 6, 6, 6, 6, 6, 18, 18, 17, 16, 15, 14, 13, 12, 10, 25, 23, 20, 18, 18, 16, 14, 11, 10, 9, 9, 9, 8, 8, 7, 7, 6, 6, 15, 14, 12, 10, 9, 7, 6, 4, 3, 17, 15, 15, 14, 13, 13, 12, 12, 11, 21, 18, 16, 15, 14, 12, 11, 9, 8|];